c description: Tseitin formula on , with odd charge
c generator: CNFgen (0.9.0)
c copyright: (C) 2012-2020 Massimo Lauria <massimo.lauria@uniroma1.it>
c url: https://massimolauria.net/cnfgen
c
p cnf 20 148
1 2 3 4 0
1 2 -3 -4 0
1 -2 3 -4 0
1 -2 -3 4 0
-1 2 3 -4 0
-1 2 -3 4 0
-1 -2 3 4 0
-1 -2 -3 -4 0
5 6 7 -8 0
5 6 -7 8 0
5 -6 7 8 0
5 -6 -7 -8 0
-5 6 7 8 0
-5 6 -7 -8 0
-5 -6 7 -8 0
-5 -6 -7 8 0
9 -10 0
-9 10 0
5 11 -12 0
5 -11 12 0
-5 11 12 0
-5 -11 -12 0
6 13 14 -15 0
6 13 -14 15 0
6 -13 14 15 0
6 -13 -14 -15 0
-6 13 14 15 0
-6 13 -14 -15 0
-6 -13 14 -15 0
-6 -13 -14 15 0
1 9 11 13 -16 0
1 9 11 -13 16 0
1 9 -11 13 16 0
1 9 -11 -13 -16 0
1 -9 11 13 16 0
1 -9 11 -13 -16 0
1 -9 -11 13 -16 0
1 -9 -11 -13 16 0
-1 9 11 13 16 0
-1 9 11 -13 -16 0
-1 9 -11 13 -16 0
-1 9 -11 -13 16 0
-1 -9 11 13 -16 0
-1 -9 11 -13 16 0
-1 -9 -11 13 16 0
-1 -9 -11 -13 -16 0
14 17 -18 0
14 -17 18 0
-14 17 18 0
-14 -17 -18 0
2 7 10 16 17 -19 0
2 7 10 16 -17 19 0
2 7 10 -16 17 19 0
2 7 10 -16 -17 -19 0
2 7 -10 16 17 19 0
2 7 -10 16 -17 -19 0
2 7 -10 -16 17 -19 0
2 7 -10 -16 -17 19 0
2 -7 10 16 17 19 0
2 -7 10 16 -17 -19 0
2 -7 10 -16 17 -19 0
2 -7 10 -16 -17 19 0
2 -7 -10 16 17 -19 0
2 -7 -10 16 -17 19 0
2 -7 -10 -16 17 19 0
2 -7 -10 -16 -17 -19 0
-2 7 10 16 17 19 0
-2 7 10 16 -17 -19 0
-2 7 10 -16 17 -19 0
-2 7 10 -16 -17 19 0
-2 7 -10 16 17 -19 0
-2 7 -10 16 -17 19 0
-2 7 -10 -16 17 19 0
-2 7 -10 -16 -17 -19 0
-2 -7 10 16 17 -19 0
-2 -7 10 16 -17 19 0
-2 -7 10 -16 17 19 0
-2 -7 10 -16 -17 -19 0
-2 -7 -10 16 17 19 0
-2 -7 -10 16 -17 -19 0
-2 -7 -10 -16 17 -19 0
-2 -7 -10 -16 -17 19 0
3 -20 0
-3 20 0
4 8 12 15 18 19 -20 0
4 8 12 15 18 -19 20 0
4 8 12 15 -18 19 20 0
4 8 12 15 -18 -19 -20 0
4 8 12 -15 18 19 20 0
4 8 12 -15 18 -19 -20 0
4 8 12 -15 -18 19 -20 0
4 8 12 -15 -18 -19 20 0
4 8 -12 15 18 19 20 0
4 8 -12 15 18 -19 -20 0
4 8 -12 15 -18 19 -20 0
4 8 -12 15 -18 -19 20 0
4 8 -12 -15 18 19 -20 0
4 8 -12 -15 18 -19 20 0
4 8 -12 -15 -18 19 20 0
4 8 -12 -15 -18 -19 -20 0
4 -8 12 15 18 19 20 0
4 -8 12 15 18 -19 -20 0
4 -8 12 15 -18 19 -20 0
4 -8 12 15 -18 -19 20 0
4 -8 12 -15 18 19 -20 0
4 -8 12 -15 18 -19 20 0
4 -8 12 -15 -18 19 20 0
4 -8 12 -15 -18 -19 -20 0
4 -8 -12 15 18 19 -20 0
4 -8 -12 15 18 -19 20 0
4 -8 -12 15 -18 19 20 0
4 -8 -12 15 -18 -19 -20 0
4 -8 -12 -15 18 19 20 0
4 -8 -12 -15 18 -19 -20 0
4 -8 -12 -15 -18 19 -20 0
4 -8 -12 -15 -18 -19 20 0
-4 8 12 15 18 19 20 0
-4 8 12 15 18 -19 -20 0
-4 8 12 15 -18 19 -20 0
-4 8 12 15 -18 -19 20 0
-4 8 12 -15 18 19 -20 0
-4 8 12 -15 18 -19 20 0
-4 8 12 -15 -18 19 20 0
-4 8 12 -15 -18 -19 -20 0
-4 8 -12 15 18 19 -20 0
-4 8 -12 15 18 -19 20 0
-4 8 -12 15 -18 19 20 0
-4 8 -12 15 -18 -19 -20 0
-4 8 -12 -15 18 19 20 0
-4 8 -12 -15 18 -19 -20 0
-4 8 -12 -15 -18 19 -20 0
-4 8 -12 -15 -18 -19 20 0
-4 -8 12 15 18 19 -20 0
-4 -8 12 15 18 -19 20 0
-4 -8 12 15 -18 19 20 0
-4 -8 12 15 -18 -19 -20 0
-4 -8 12 -15 18 19 20 0
-4 -8 12 -15 18 -19 -20 0
-4 -8 12 -15 -18 19 -20 0
-4 -8 12 -15 -18 -19 20 0
-4 -8 -12 15 18 19 20 0
-4 -8 -12 15 18 -19 -20 0
-4 -8 -12 15 -18 19 -20 0
-4 -8 -12 15 -18 -19 20 0
-4 -8 -12 -15 18 19 -20 0
-4 -8 -12 -15 18 -19 20 0
-4 -8 -12 -15 -18 19 20 0
-4 -8 -12 -15 -18 -19 -20 0